nNurses = 120;
nHours = 27;
minHours = 4;
maxHours = 14;
maxConsec = 8;
maxPresence = 20;
demand = [23, 27, 29, 30, 26, 28, 24, 29, 30, 34, 34, 29, 30, 28, 32, 35, 30, 27, 23, 25, 24, 28, 32, 34, 33, 36, 32];
